mapa = [|
         9,9,9,9,9,9,9,9,9|
         9,0,0,0,0,0,0,0,9|
         9,0,9,8,8,8,9,0,9|
         9,0,9,1,1,1,9,0,9|
         9,0,0,0,0,0,0,0,9|
         9,9,9,9,9,9,9,9,9|];
dimx = 6;
dimy = 9;
filav = 5;
colav = 5;
